% demand
num_movements = 30;
loading_factor = [1050, 1500, 950, 2000, 1350, 1650, 850, 1500, 1250, 1050, 1400, 800, 1700, 1450, 1650, 900, 1700, 1300, 1550, 1700, 1050, 1800, 1300, 1050, 1500, 1350, 1300, 1850, 950, 1400];
pickup_time = [0, 0, 0, 1, 2, 2, 2, 2, 2, 3, 3, 3, 4, 4, 5, 6, 8, 8, 9, 9, 9, 10, 10, 10, 10, 10, 11, 11, 11, 11];
delivery_time = [2, 2, 2, 2, 3, 3, 4, 3, 3, 4, 6, 8, 8, 9, 10, 10, 9, 9, 10, 10, 10, 11, 11, 11, 11, 11, 12, 12, 12, 12];

% transporter definition
total_capacity = 7000;
num_decks = 3;
capacity = [3000, 1000, 3000];

% ways out of decks
num_ways_out = 1;
paths_out = array3d(decks, ways_out, decks, [
% ways out of deck d1
2, 3, 0, 

% ways out of deck d2
3, 0, 0, 

% ways out of deck d3
0, 0, 0,	

]);

